Mg6 Zn7 Co7 Cu6 Ni6 O32
1.0
8.500000 0.000000 0.000000
0.000000 8.500000 0.000000
0.000000 0.000000 8.500000
Ni Mg Cu Co Zn O
6 6 6 7 7 32
direct
0.250000 0.750000 0.000000 Ni
0.250000 0.500000 0.250000 Ni
0.250000 0.250000 0.500000 Ni
0.750000 0.000000 0.750000 Ni
0.000000 0.750000 0.750000 Ni
0.500000 0.250000 0.750000 Ni
0.750000 0.250000 0.000000 Mg
0.250000 0.000000 0.250000 Mg
0.500000 0.750000 0.250000 Mg
0.250000 0.500000 0.750000 Mg
0.500000 0.750000 0.750000 Mg
0.000000 0.250000 0.750000 Mg
0.000000 0.500000 0.000000 Cu
0.000000 0.000000 0.500000 Cu
0.000000 0.000000 0.000000 Cu
0.500000 0.000000 0.500000 Cu
0.500000 0.500000 0.000000 Cu
0.500000 0.500000 0.500000 Cu
0.000000 0.250000 0.250000 Co
0.750000 0.750000 0.500000 Co
0.000000 0.750000 0.250000 Co
0.750000 0.250000 0.500000 Co
0.750000 0.000000 0.250000 Co
0.750000 0.750000 0.000000 Co
0.750000 0.500000 0.750000 Co
0.250000 0.750000 0.500000 Zn
0.500000 0.000000 0.000000 Zn
0.250000 0.250000 0.000000 Zn
0.500000 0.250000 0.250000 Zn
0.000000 0.500000 0.500000 Zn
0.750000 0.500000 0.250000 Zn
0.250000 0.000000 0.750000 Zn
0.000000 0.000000 0.250000 O
0.000000 0.000000 0.750000 O
0.000000 0.250000 0.000000 O
0.000000 0.250000 0.500000 O
0.000000 0.500000 0.250000 O
0.000000 0.500000 0.750000 O
0.000000 0.750000 0.000000 O
0.000000 0.750000 0.500000 O
0.250000 0.000000 0.000000 O
0.250000 0.000000 0.500000 O
0.250000 0.250000 0.250000 O
0.250000 0.250000 0.750000 O
0.250000 0.500000 0.000000 O
0.250000 0.500000 0.500000 O
0.250000 0.750000 0.250000 O
0.250000 0.750000 0.750000 O
0.500000 0.000000 0.250000 O
0.500000 0.000000 0.750000 O
0.500000 0.250000 0.000000 O
0.500000 0.250000 0.500000 O
0.500000 0.500000 0.250000 O
0.500000 0.500000 0.750000 O
0.500000 0.750000 0.000000 O
0.500000 0.750000 0.500000 O
0.750000 0.000000 0.000000 O
0.750000 0.000000 0.500000 O
0.750000 0.250000 0.250000 O
0.750000 0.250000 0.750000 O
0.750000 0.500000 0.000000 O
0.750000 0.500000 0.500000 O
0.750000 0.750000 0.250000 O
0.750000 0.750000 0.750000 O
