Mg6 Zn7 Co7 Cu6 Ni6 O32
1.0
   8.5000000000000000    0.0000000000000000    0.0000000000000000
   0.0000000000000000    8.5000000000000000    0.0000000000000000
   0.0000000000000000    0.0000000000000000    8.5000000000000000
Ni Mg Cu Co Zn O
6 6 6 7 7 32
direct
   0.0000000000000000    0.7500000000000000    0.7500000000000000 Ni
   0.7500000000000000    0.0000000000000000    0.7500000000000000 Ni
   0.7500000000000000    0.0000000000000000    0.2500000000000000 Ni
   0.5000000000000000    0.2500000000000000    0.2500000000000000 Ni
   0.5000000000000000    0.0000000000000000    0.0000000000000000 Ni
   0.5000000000000000    0.5000000000000000    0.5000000000000000 Ni
   0.0000000000000000    0.2500000000000000    0.7500000000000000 Mg
   0.5000000000000000    0.2500000000000000    0.7500000000000000 Mg
   0.5000000000000000    0.7500000000000000    0.7500000000000000 Mg
   0.7500000000000000    0.2500000000000000    0.0000000000000000 Mg
   0.5000000000000000    0.7500000000000000    0.2500000000000000 Mg
   0.2500000000000000    0.2500000000000000    0.0000000000000000 Mg
   0.0000000000000000    0.2500000000000000    0.2500000000000000 Cu
   0.0000000000000000    0.5000000000000000    0.0000000000000000 Cu
   0.2500000000000000    0.2500000000000000    0.5000000000000000 Cu
   0.7500000000000000    0.2500000000000000    0.5000000000000000 Cu
   0.2500000000000000    0.0000000000000000    0.2500000000000000 Cu
   0.2500000000000000    0.7500000000000000    0.5000000000000000 Cu
   0.5000000000000000    0.0000000000000000    0.5000000000000000 Co
   0.0000000000000000    0.5000000000000000    0.5000000000000000 Co
   0.2500000000000000    0.7500000000000000    0.0000000000000000 Co
   0.7500000000000000    0.7500000000000000    0.0000000000000000 Co
   0.2500000000000000    0.5000000000000000    0.7500000000000000 Co
   0.0000000000000000    0.7500000000000000    0.2500000000000000 Co
   0.0000000000000000    0.0000000000000000    0.0000000000000000 Co
   0.2500000000000000    0.5000000000000000    0.2500000000000000 Zn
   0.0000000000000000    0.0000000000000000    0.5000000000000000 Zn
   0.2500000000000000    0.0000000000000000    0.7500000000000000 Zn
   0.7500000000000000    0.5000000000000000    0.7500000000000000 Zn
   0.7500000000000000    0.5000000000000000    0.2500000000000000 Zn
   0.5000000000000000    0.5000000000000000    0.0000000000000000 Zn
   0.7500000000000000    0.7500000000000000    0.5000000000000000 Zn
   0.0000000000000000    0.0000000000000000    0.2500000000000000 O
   0.0000000000000000    0.0000000000000000    0.7500000000000000 O
   0.0000000000000000    0.2500000000000000    0.0000000000000000 O
   0.0000000000000000    0.2500000000000000    0.5000000000000000 O
   0.0000000000000000    0.5000000000000000    0.2500000000000000 O
   0.0000000000000000    0.5000000000000000    0.7500000000000000 O
   0.0000000000000000    0.7500000000000000    0.0000000000000000 O
   0.0000000000000000    0.7500000000000000    0.5000000000000000 O
   0.2500000000000000    0.0000000000000000    0.0000000000000000 O
   0.2500000000000000    0.0000000000000000    0.5000000000000000 O
   0.2500000000000000    0.2500000000000000    0.2500000000000000 O
   0.2500000000000000    0.2500000000000000    0.7500000000000000 O
   0.2500000000000000    0.5000000000000000    0.0000000000000000 O
   0.2500000000000000    0.5000000000000000    0.5000000000000000 O
   0.2500000000000000    0.7500000000000000    0.2500000000000000 O
   0.2500000000000000    0.7500000000000000    0.7500000000000000 O
   0.5000000000000000    0.0000000000000000    0.2500000000000000 O
   0.5000000000000000    0.0000000000000000    0.7500000000000000 O
   0.5000000000000000    0.2500000000000000    0.0000000000000000 O
   0.5000000000000000    0.2500000000000000    0.5000000000000000 O
   0.5000000000000000    0.5000000000000000    0.2500000000000000 O
   0.5000000000000000    0.5000000000000000    0.7500000000000000 O
   0.5000000000000000    0.7500000000000000    0.0000000000000000 O
   0.5000000000000000    0.7500000000000000    0.5000000000000000 O
   0.7500000000000000    0.0000000000000000    0.0000000000000000 O
   0.7500000000000000    0.0000000000000000    0.5000000000000000 O
   0.7500000000000000    0.2500000000000000    0.2500000000000000 O
   0.7500000000000000    0.2500000000000000    0.7500000000000000 O
   0.7500000000000000    0.5000000000000000    0.0000000000000000 O
   0.7500000000000000    0.5000000000000000    0.5000000000000000 O
   0.7500000000000000    0.7500000000000000    0.2500000000000000 O
   0.7500000000000000    0.7500000000000000    0.7500000000000000 O
