HEO_eq
1.0
        8.3941001892         0.0000000000         0.0000000000
        0.0000000000         8.3941001892         0.0000000000
        0.0000000000         0.0000000000         8.3941001892
   Zn Fe Ni Co Mn O
   5  4  5  5  5  32
Direct
0.375000000         0.875000000         0.375000000
0.875000000         0.875000000         0.875000000
0.625000000         0.125000000         0.625000000
0.125000000         0.125000000         0.125000000
0.125000000         0.625000000         0.625000000
0.750000000         0.500000000         0.750000000
0.250000000         0.000000000         0.750000000
0.500000000         0.750000000         0.750000000
0.500000000         0.500000000         0.500000000
0.250000000         0.250000000         0.500000000
0.000000000         0.750000000         0.250000000
0.625000000         0.625000000         0.125000000
0.000000000         0.500000000         0.000000000
0.375000000         0.375000000         0.875000000
0.875000000         0.375000000         0.375000000
0.750000000         0.250000000         0.000000000
0.750000000         0.000000000         0.250000000
0.500000000         0.000000000         0.000000000
0.000000000         0.250000000         0.750000000
0.750000000         0.750000000         0.500000000
0.250000000         0.750000000         0.000000000
0.500000000         0.250000000         0.250000000
0.250000000         0.500000000         0.250000000
0.000000000         0.000000000         0.500000000
0.254900008         0.254900008         0.254900008
     0.745100021         0.745100021         0.745100021
     0.495099992         0.995100021         0.754899979
     0.504899979         0.004900008         0.245099992
     0.995100021         0.754899979         0.495099992
     0.004900008         0.245099992         0.504899979
     0.754899979         0.495099992         0.995100021
     0.245099992         0.504899979         0.004900008
     0.004900008         0.504899979         0.245099992
     0.995100021         0.495099992         0.754899979
     0.504899979         0.245099992         0.004900008
     0.495099992         0.754899979         0.995100021
     0.245099992         0.004900008         0.504899979
     0.754899979         0.995100021         0.495099992
     0.254900008         0.754899979         0.754899979
     0.745100021         0.245099992         0.245099992
     0.495099992         0.495099992         0.254900008
     0.504899979         0.504899979         0.745100021
     0.995100021         0.254900008         0.995100021
     0.004900008         0.745100021         0.004900008
     0.004900008         0.004900008         0.745100021
     0.995100021         0.995100021         0.254900008
     0.504899979         0.745100021         0.504899979
     0.495099992         0.254900008         0.495099992
     0.754899979         0.254900008         0.754899979
     0.245099992         0.745100021         0.245099992
     0.254900008         0.495099992         0.495099992
     0.745100021         0.504899979         0.504899979
     0.745100021         0.004900008         0.004900008
     0.254900008         0.995100021         0.995100021
     0.754899979         0.754899979         0.254900008
     0.245099992         0.245099992         0.745100021
